num_offers = 28;
start = [5, 5, 5, 5, 41, 41, 47, 47, 47, 47, 47, 47, 10, 10, 10, 10, 10, 10, 10, 10, 1, 1, 1, 1, 1, 1, 1, 51];
end = [19, 19, 19, 19, 61, 61, 78, 78, 78, 78, 78, 78, 92, 92, 92, 92, 92, 92, 92, 92, 26, 26, 26, 26, 26, 26, 26, 82];
price = [975, 975, 975, 975, 1554, 1554, 1920, 1920, 1920, 1920, 1920, 1920, 2158, 2158, 2158, 2158, 2158, 2158, 2158, 2158, 1482, 1482, 1482, 1482, 1482, 1482, 1482, 2016];
num_halls = 10;
capacity = [516,516,842,842,842,842,367,693,693,693];
requirement = [623,623,623,623,623,949,949,949,475,833,833,833,833,833,833,833,359,359,359,359,359,684,684,684,210,210,210,210];
